\* Problem: Unknown *\

Maximize
 obj: + xp_0_0 + xp_1_0 + xp_1_1 + xp_2_0 + xp_3_0 + xp_4_0 + xp_5_0
 + xp_6_0 + xp_7_0 + xp_8_0 + xp_9_0 + xp_9_1 + xp_10_0 + xp_11_0
 + xp_11_1 + xp_12_0 + xp_12_1 + xp_13_0 + xp_14_0 + xp_14_1 + xp_15_0
 + xp_16_0 + xp_17_0 + xp_17_1 + xp_18_0 + xp_18_1 + xp_19_0 + xp_19_1
 + xp_20_0 + xp_21_0 + xp_22_0 + xp_22_1 + xp_23_0 + xp_24_0 + xp_24_1
 + xp_25_0 + xp_26_0 + xp_27_0 + xp_28_0 + xp_28_1 + xp_29_0 + xp_30_0
 + xp_30_1 + xp_31_0 + xp_32_0 + xp_33_0 + xp_34_0 + xp_34_1 + xp_35_0
 + xp_36_0 + xp_37_0 + xp_38_0 + xp_39_0 + xp_40_0 + xp_40_1 + xp_41_0
 + xp_42_0 + xp_42_1 + xp_42_2 + xp_43_0 + xp_44_0 + xp_45_0 + xp_46_0
 + xp_47_0 + xp_48_0 + xp_49_0 + xp_50_0 + xp_50_1 + xp_51_0 + xp_52_0
 + xp_53_0 + xp_54_0 + xp_55_0 + xp_56_0 + xp_57_0 + xp_58_0 + xp_58_1
 + xp_58_2 + xp_59_0 + xp_60_0 + xp_60_1 + xp_61_0 + xp_61_1 + xp_62_0
 + xp_63_0 + xp_63_1 + xp_64_0 + xp_65_0 + xp_65_1 + xp_66_0 + xp_67_0
 + xp_67_1 + xp_68_0 + xp_68_1 + xp_68_2 + xp_69_0 + xp_70_0 + xp_71_0
 + xp_72_0 + xp_73_0 + xp_74_0 + xp_75_0 + xp_76_0 + xp_77_0 + xp_77_1
 + xp_78_0 + xp_78_1 + xp_78_2 + xp_79_0 + xp_79_1 + xp_79_2 + xp_80_0
 + xp_80_1 + xp_81_0 + xp_81_1 + xp_82_0 + xp_83_0 + xp_84_0 + xp_85_0
 + xp_86_0 + xp_86_1 + xp_87_0 + xp_88_0 + xp_89_0 + xp_90_0 + xp_90_1
 + xp_91_0 + xp_91_1 + xp_91_2 + xp_92_0 + xp_93_0 + xp_94_0 + xp_95_0
 + xp_96_0 + xp_97_0 + xp_98_0 + xp_98_1 + xp_99_0 + xp_100_0 + xp_101_0
 + xp_102_0 + xp_103_0 + xp_104_0 + xp_105_0 + xp_106_0 + xp_107_0
 + xp_108_0 + xp_108_1 + xp_108_2 + xp_109_0 + xp_109_1 + xp_110_0
 + xp_111_0 + xp_111_1 + xp_112_0 + xp_112_1 + xp_113_0 + xp_114_0
 + xp_115_0 + xp_116_0 + xp_116_1 + xp_117_0 + xp_118_0 + xp_119_0
 + xp_120_0 + xp_120_1 + xp_121_0 + xp_122_0 + xp_123_0 + xp_124_0
 + xp_125_0 + xp_125_1 + xp_126_0 + xp_126_1 + xp_126_2 + xp_126_3
 + xp_126_4 + xp_127_0 + xp_127_1 + xp_128_0 + xp_128_1 + xp_129_0
 + xp_129_1 + xp_130_0 + xp_131_0 + xp_131_1 + xp_131_2

Subject To
 r_1: + xp_128_1 + xp_122_0 + xp_121_0 + xp_108_2 + xp_107_0 + xp_78_2
 + xp_67_1 + xp_40_1 + xp_25_0 + xp_22_1 + xp_18_0 + xp_16_0 + xp_4_0
 <= 39033.1753554502
 r_2: + xp_131_2 + xp_131_1 + xp_127_1 + xp_126_1 + xp_120_0 + xp_93_0
 + xp_90_1 + xp_85_0 + xp_77_1 + xp_75_0 + xp_71_0 + xp_66_0 + xp_65_1
 + xp_65_0 + xp_61_1 + xp_55_0 + xp_52_0 + xp_48_0 + xp_42_2 + xp_42_1
 + xp_32_0 + xp_28_1 + xp_28_0 + xp_24_0 + xp_19_1 + xp_19_0 + xp_12_1
 + xp_1_1 <= 35582.3665893272
 r_3: + xp_126_4 + xp_114_0 + xp_95_0 + xp_91_1 + xp_79_1 + xp_76_0
 + xp_58_2 + xp_40_1 + xp_34_0 <= 40000
 r_4: + xp_117_0 + xp_112_1 + xp_111_1 + xp_91_2 + xp_91_0 + xp_84_0
 + xp_79_2 + xp_79_0 + xp_46_0 + xp_43_0 + xp_40_0 + xp_34_1
 <= 37964.8842777334
 r_5: + xp_130_0 + xp_112_1 + xp_111_1 + xp_99_0 + xp_86_0 + xp_65_1
 + xp_7_0 + xp_2_0 <= 40000
 r_6: + xp_126_4 + xp_126_2 + xp_119_0 + xp_114_0 + xp_95_0 + xp_91_1
 + xp_83_0 + xp_81_0 + xp_79_1 + xp_70_0 + xp_68_1 + xp_58_2 + xp_58_1
 + xp_53_0 + xp_45_0 + xp_40_1 + xp_34_0 + xp_30_1 + xp_18_0
 <= 39484.32760364
 r_7: + xp_104_0 + xp_88_0 + xp_82_0 + xp_81_1 + xp_78_1 + xp_50_1
 + xp_44_0 + xp_27_0 + xp_18_1 <= 37964.8842777334
 r_8: + xp_131_2 + xp_131_1 + xp_127_1 + xp_126_1 + xp_120_0 + xp_118_0
 + xp_103_0 + xp_90_1 + xp_77_1 + xp_71_0 + xp_61_1 + xp_55_0 + xp_42_2
 + xp_42_1 + xp_32_0 + xp_24_0 + xp_12_1 + xp_1_1 <= 39033.1753554502
 r_9: + xp_131_0 + xp_127_0 + xp_122_0 + xp_120_1 + xp_108_2 + xp_78_2
 + xp_77_0 + xp_67_1 + xp_42_0 + xp_33_0 + xp_24_1 <= 40000
 r_10: + xp_112_1 + xp_111_1 + xp_106_0 + xp_99_0 + xp_98_0 + xp_88_0
 + xp_86_0 + xp_85_0 + xp_78_1 + xp_65_1 + xp_50_1 + xp_26_0 + xp_24_0
 + xp_8_0 + xp_7_0 + xp_2_0 <= 39484.32760364
 r_11: + xp_119_0 + xp_112_0 + xp_111_0 + xp_95_0 + xp_91_1 + xp_81_0
 + xp_79_1 + xp_78_2 + xp_78_0 + xp_59_0 + xp_53_0 + xp_50_0 + xp_49_0
 + xp_45_0 + xp_40_1 + xp_34_0 + xp_18_0 + xp_4_0 + xp_3_0
 <= 36974.2913645353
 r_12: + xp_129_0 + xp_128_0 + xp_123_0 + xp_117_0 + xp_112_1 + xp_111_1
 + xp_108_1 + xp_101_0 + xp_91_2 + xp_82_0 + xp_81_1 + xp_80_1 + xp_79_2
 + xp_78_1 + xp_78_0 + xp_73_0 + xp_63_1 + xp_60_0 + xp_50_1 + xp_46_0
 + xp_44_0 + xp_40_0 + xp_18_1 + xp_17_1 + xp_15_0 + xp_14_1 + xp_13_0
 + xp_9_0 <= 36656.4228641672
 r_13: + xp_129_1 + xp_128_1 + xp_126_3 + xp_120_1 + xp_109_1 + xp_100_0
 + xp_91_0 + xp_90_0 + xp_80_0 + xp_79_0 + xp_68_0 + xp_63_0 + xp_60_1
 + xp_34_1 + xp_31_0 + xp_30_0 + xp_17_0 + xp_9_1 <= 36974.2913645353
 r_14: + xp_131_2 + xp_131_1 + xp_131_0 + xp_126_4 + xp_126_2 + xp_125_1
 + xp_125_0 + xp_124_0 + xp_115_0 + xp_98_1 + xp_94_0 + xp_86_1
 + xp_77_1 + xp_77_0 + xp_68_1 + xp_65_0 + xp_58_2 + xp_58_1 + xp_56_0
 + xp_51_0 + xp_41_0 + xp_38_0 + xp_35_0 + xp_30_1 + xp_24_1 + xp_20_0
 + xp_19_1 + xp_19_0 + xp_12_1 + xp_12_0 + xp_0_0 <= 37964.8842777334
 r_15: + xp_131_2 + xp_131_0 + xp_126_4 + xp_126_3 + xp_126_2 + xp_125_0
 + xp_124_0 + xp_120_1 + xp_116_0 + xp_115_0 + xp_109_1 + xp_98_1
 + xp_94_0 + xp_90_0 + xp_89_0 + xp_86_1 + xp_77_1 + xp_77_0 + xp_68_1
 + xp_68_0 + xp_65_0 + xp_58_2 + xp_58_1 + xp_51_0 + xp_42_2 + xp_42_0
 + xp_38_0 + xp_36_0 + xp_28_1 + xp_24_1 + xp_19_1 + xp_12_0 + xp_11_0
 + xp_0_0 <= 36656.4228641672
 r_16: + xp_128_0 + xp_123_0 + xp_108_1 + xp_108_0 + xp_78_1 + xp_78_0
 + xp_73_0 + xp_67_0 + xp_57_0 + xp_46_0 + xp_44_0 + xp_40_0 + xp_22_0
 + xp_18_1 + xp_13_0 + xp_6_0 <= 36656.4228641672
 r_17: + xp_129_0 + xp_126_0 + xp_112_1 + xp_111_1 + xp_109_0 + xp_97_0
 + xp_91_2 + xp_81_1 + xp_80_1 + xp_79_2 + xp_68_2 + xp_63_1 + xp_62_0
 + xp_61_0 + xp_60_0 + xp_47_0 + xp_22_1 + xp_17_1 + xp_9_0 + xp_1_0
 <= 35582.3665893272
 r_18: + xp_126_3 + xp_126_1 + xp_126_0 + xp_106_0 + xp_99_0 + xp_98_0
 + xp_92_0 + xp_86_0 + xp_85_0 + xp_68_2 + xp_68_0 + xp_65_1 + xp_58_0
 + xp_48_0 + xp_32_0 + xp_30_0 + xp_26_0 + xp_24_0 + xp_5_0 + xp_2_0
 <= 36974.2913645353
 r_19: + xp_131_1 + xp_125_1 + xp_116_1 + xp_110_0 + xp_108_1 + xp_78_0
 + xp_56_0 + xp_42_1 + xp_28_0 + xp_19_0 + xp_14_1 + xp_12_1 + xp_11_1
 + xp_3_0 <= 36974.2913645353
 r_20: + xp_129_1 + xp_128_1 + xp_119_0 + xp_112_0 + xp_111_0 + xp_108_2
 + xp_108_0 + xp_107_0 + xp_95_0 + xp_91_1 + xp_91_0 + xp_81_0 + xp_80_0
 + xp_79_1 + xp_79_0 + xp_78_2 + xp_69_0 + xp_64_0 + xp_63_0 + xp_60_1
 + xp_50_0 + xp_49_0 + xp_45_0 + xp_40_1 + xp_18_0 + xp_17_0 + xp_14_0
 + xp_10_0 + xp_9_1 + xp_4_0 <= 35582.3665893272
 r_21: + xp_126_4 + xp_113_0 + xp_86_1 + xp_77_1 + xp_77_0 + xp_65_0
 + xp_58_2 + xp_38_0 + xp_20_0 + xp_0_0 <= 37964.8842777334
 r_22: + xp_126_2 + xp_124_0 + xp_105_0 + xp_98_1 + xp_94_0 + xp_83_0
 + xp_68_1 + xp_58_1 + xp_41_0 + xp_30_1 + xp_24_1 <= 37964.8842777334
 r_23: + xp_128_1 + xp_128_0 + xp_117_0 + xp_112_1 + xp_111_1 + xp_104_0
 + xp_100_0 + xp_91_2 + xp_91_0 + xp_84_0 + xp_82_0 + xp_81_1 + xp_80_1
 + xp_80_0 + xp_79_2 + xp_79_0 + xp_78_1 + xp_73_0 + xp_60_1 + xp_60_0
 + xp_50_1 + xp_46_0 + xp_44_0 + xp_40_0 + xp_34_1 + xp_21_0 + xp_18_1
 + xp_15_0 + xp_9_1 + xp_9_0 <= 37964.8842777334
 r_24: + xp_128_0 + xp_126_1 + xp_103_0 + xp_90_1 + xp_61_1 + xp_40_0
 + xp_39_0 + xp_22_0 + xp_18_1 + xp_13_0 + xp_12_1 + xp_1_1 <= 40000
 r_25: + xp_131_0 + xp_127_0 + xp_126_4 + xp_126_3 + xp_126_2 + xp_126_0
 + xp_120_1 + xp_94_0 + xp_90_0 + xp_89_0 + xp_77_0 + xp_74_0 + xp_61_0
 + xp_42_0 + xp_38_0 + xp_24_1 + xp_12_0 + xp_1_0 <= 36656.4228641672
 r_26: + xp_128_1 + xp_121_0 + xp_112_1 + xp_112_0 + xp_108_2 + xp_107_0
 + xp_81_1 + xp_81_0 + xp_79_2 + xp_79_1 + xp_79_0 + xp_78_2 + xp_67_1
 + xp_64_0 + xp_60_1 + xp_60_0 + xp_47_0 + xp_40_1 + xp_37_0 + xp_29_0
 + xp_25_0 + xp_22_1 + xp_18_0 + xp_17_1 + xp_17_0 + xp_4_0
 <= 35582.3665893272
 r_27: + xp_131_2 + xp_127_1 + xp_125_0 + xp_116_0 + xp_115_0 + xp_108_0
 + xp_98_1 + xp_86_1 + xp_77_1 + xp_72_0 + xp_67_0 + xp_65_0 + xp_58_2
 + xp_58_1 + xp_57_0 + xp_52_0 + xp_50_0 + xp_42_2 + xp_28_1 + xp_23_0
 + xp_19_1 + xp_14_0 + xp_11_0 <= 35582.3665893272
 r_28: + xp_131_1 + xp_126_1 + xp_126_0 + xp_125_1 + xp_120_0 + xp_116_1
 + xp_109_0 + xp_99_0 + xp_98_0 + xp_96_0 + xp_92_0 + xp_90_1 + xp_86_0
 + xp_85_0 + xp_75_0 + xp_68_2 + xp_65_1 + xp_58_0 + xp_54_0 + xp_48_0
 + xp_42_1 + xp_32_0 + xp_28_0 + xp_26_0 + xp_24_0 + xp_19_0 + xp_12_1
 + xp_11_1 <= 35582.3665893272
 r_29: + xp_129_1 + xp_129_0 + xp_95_0 + xp_93_0 + xp_87_0 + xp_71_0
 + xp_62_0 + xp_49_0 + xp_45_0 + xp_10_0 + xp_9_1 + xp_9_0 + xp_1_1
 + xp_1_0 <= 35582.3665893272
 r_30: + xp_125_1 + xp_125_0 + xp_121_0 + xp_102_0 + xp_99_0 + xp_96_0
 + xp_92_0 + xp_57_0 + xp_37_0 + xp_26_0 + xp_23_0 + xp_11_1 + xp_11_0
 <= 35582.3665893272

Bounds
 0 <= xp_0_0 <= 230.81076579638
 0 <= xp_1_0 <= 148.823515189938
 0 <= xp_1_1 <= 29.7647030379876
 0 <= xp_2_0 <= 112.504130255498
 0 <= xp_3_0 <= 178.330329104131
 0 <= xp_4_0 <= 771.668730675105
 0 <= xp_5_0 <= 1059.73088195394
 0 <= xp_6_0 <= 1752.80790215257
 0 <= xp_7_0 <= 624.349568707304
 0 <= xp_8_0 <= 1476.80206741114
 0 <= xp_9_0 <= 70.5756568785208
 0 <= xp_9_1 <= 35.2878284392604
 0 <= xp_10_0 <= 53.6409377493264
 0 <= xp_11_0 <= 33.8479474980725
 0 <= xp_11_1 <= 6.76958949961451
 0 <= xp_12_0 <= 1685.03678949532
 0 <= xp_12_1 <= 337.007357899063
 0 <= xp_13_0 <= 246.477530066917
 0 <= xp_14_0 <= 71.7146671752813
 0 <= xp_14_1 <= 143.429334350563
 0 <= xp_15_0 <= 496.049729619372
 0 <= xp_16_0 <= 2583.33982533384
 0 <= xp_17_0 <= 242.147141863195
 0 <= xp_17_1 <= 48.429428372639
 0 <= xp_18_0 <= 175.590257163811
 0 <= xp_18_1 <= 175.590257163811
 0 <= xp_19_0 <= 690.369184398782
 0 <= xp_19_1 <= 345.184592199391
 0 <= xp_20_0 <= 125.463058726189
 0 <= xp_21_0 <= 268.527050151375
 0 <= xp_22_0 <= 1004.4244102801
 0 <= xp_22_1 <= 200.884882056021
 0 <= xp_23_0 <= 50.8686296685319
 0 <= xp_24_0 <= 222.171480149253
 0 <= xp_24_1 <= 111.085740074627
 0 <= xp_25_0 <= 566.260043572516
 0 <= xp_26_0 <= 15.0220414610493
 0 <= xp_27_0 <= 330.613856704983
 0 <= xp_28_0 <= 435.402804006952
 0 <= xp_28_1 <= 217.701402003476
 0 <= xp_29_0 <= 2395.14523724456
 0 <= xp_30_0 <= 149.521964900216
 0 <= xp_30_1 <= 29.9043929800431
 0 <= xp_31_0 <= 186.518308784617
 0 <= xp_32_0 <= 2202.82442317456
 0 <= xp_33_0 <= 7886.7007116128
 0 <= xp_34_0 <= 333.278710984196
 0 <= xp_34_1 <= 166.639355492098
 0 <= xp_35_0 <= 255.439177118787
 0 <= xp_36_0 <= 312.110312072703
 0 <= xp_37_0 <= 357.047491893954
 0 <= xp_38_0 <= 327.648131781342
 0 <= xp_39_0 <= 1539.72701361708
 0 <= xp_40_0 <= 692.486024289931
 0 <= xp_40_1 <= 138.497204857986
 0 <= xp_41_0 <= 78.2048767907847
 0 <= xp_42_0 <= 222.235952430202
 0 <= xp_42_1 <= 74.0786508100673
 0 <= xp_42_2 <= 148.157301620135
 0 <= xp_43_0 <= 481.543466405912
 0 <= xp_44_0 <= 448.791547683967
 0 <= xp_45_0 <= 41.6490934928664
 0 <= xp_46_0 <= 1571.253959001
 0 <= xp_47_0 <= 860.189172417683
 0 <= xp_48_0 <= 2844.45256317612
 0 <= xp_49_0 <= 86.1994396284247
 0 <= xp_50_0 <= 639.67248081278
 0 <= xp_50_1 <= 127.934496162556
 0 <= xp_51_0 <= 694.430938098551
 0 <= xp_52_0 <= 648.268784939275
 0 <= xp_53_0 <= 185.87358597513
 0 <= xp_54_0 <= 3614.7673759513
 0 <= xp_55_0 <= 1159.92080654823
 0 <= xp_56_0 <= 93.7426964994237
 0 <= xp_57_0 <= 201.669294807564
 0 <= xp_58_0 <= 2966.41262797076
 0 <= xp_58_1 <= 741.60315699269
 0 <= xp_58_2 <= 741.60315699269
 0 <= xp_59_0 <= 10417.4956279734
 0 <= xp_60_0 <= 221.139923654074
 0 <= xp_60_1 <= 442.279847308148
 0 <= xp_61_0 <= 1184.25909260637
 0 <= xp_61_1 <= 1184.25909260637
 0 <= xp_62_0 <= 128.428783649829
 0 <= xp_63_0 <= 107.507528481973
 0 <= xp_63_1 <= 21.5015056963946
 0 <= xp_64_0 <= 973.209080920771
 0 <= xp_65_0 <= 426.054323269389
 0 <= xp_65_1 <= 85.2108646538778
 0 <= xp_66_0 <= 1644.23658103494
 0 <= xp_67_0 <= 329.990624655812
 0 <= xp_67_1 <= 65.9981249311624
 0 <= xp_68_0 <= 480.662345232946
 0 <= xp_68_1 <= 720.993517849419
 0 <= xp_68_2 <= 240.331172616473
 0 <= xp_69_0 <= 1682.01733767088
 0 <= xp_70_0 <= 618.224702017176
 0 <= xp_71_0 <= 69.3721743008115
 0 <= xp_72_0 <= 586.310922947565
 0 <= xp_73_0 <= 903.385600653319
 0 <= xp_74_0 <= 932.978377608776
 0 <= xp_75_0 <= 1726.50321152549
 0 <= xp_76_0 <= 1685.49884084211
 0 <= xp_77_0 <= 466.671860267076
 0 <= xp_77_1 <= 93.3343720534153
 0 <= xp_78_0 <= 4566.45346041536
 0 <= xp_78_1 <= 13699.3603812461
 0 <= xp_78_2 <= 9132.90692083072
 0 <= xp_79_0 <= 521.516280594112
 0 <= xp_79_1 <= 173.838760198037
 0 <= xp_79_2 <= 347.677520396075
 0 <= xp_80_0 <= 147.168726645588
 0 <= xp_80_1 <= 73.5843633227939
 0 <= xp_81_0 <= 212.865980932323
 0 <= xp_81_1 <= 42.5731961864646
 0 <= xp_82_0 <= 215.208473806793
 0 <= xp_83_0 <= 493.341893819526
 0 <= xp_84_0 <= 871.471821583707
 0 <= xp_85_0 <= 400.17944784864
 0 <= xp_86_0 <= 83.9429097952199
 0 <= xp_86_1 <= 83.9429097952199
 0 <= xp_87_0 <= 138.357514915931
 0 <= xp_88_0 <= 416.426462647715
 0 <= xp_89_0 <= 2174.90792552377
 0 <= xp_90_0 <= 10627.385138602
 0 <= xp_90_1 <= 10627.385138602
 0 <= xp_91_0 <= 1332.60981106935
 0 <= xp_91_1 <= 444.203270356451
 0 <= xp_91_2 <= 888.406540712902
 0 <= xp_92_0 <= 65.5038374438889
 0 <= xp_93_0 <= 127.784060840342
 0 <= xp_94_0 <= 232.229155977252
 0 <= xp_95_0 <= 60.0881658441973
 0 <= xp_96_0 <= 113.084380784037
 0 <= xp_97_0 <= 516.809804084856
 0 <= xp_98_0 <= 116.802282318746
 0 <= xp_98_1 <= 23.3604564637491
 0 <= xp_99_0 <= 16.0535979562287
 0 <= xp_100_0 <= 493.14847697668
 0 <= xp_101_0 <= 244.994667605096
 0 <= xp_102_0 <= 73.4984002815289
 0 <= xp_103_0 <= 1411.68506365295
 0 <= xp_104_0 <= 129.331395583111
 0 <= xp_105_0 <= 1421.61379491905
 0 <= xp_106_0 <= 40.617536997687
 0 <= xp_107_0 <= 440.990401689174
 0 <= xp_108_0 <= 555.020375927125
 0 <= xp_108_1 <= 138.755093981781
 0 <= xp_108_2 <= 138.755093981781
 0 <= xp_109_0 <= 473.935737253964
 0 <= xp_109_1 <= 473.935737253964
 0 <= xp_110_0 <= 130.620841202086
 0 <= xp_111_0 <= 2389.98745476866
 0 <= xp_111_1 <= 477.997490953733
 0 <= xp_112_0 <= 3825.19415558773
 0 <= xp_112_1 <= 765.038831117546
 0 <= xp_113_0 <= 417.135657738151
 0 <= xp_114_0 <= 2351.17514163754
 0 <= xp_115_0 <= 216.626863987664
 0 <= xp_116_0 <= 130.502642020346
 0 <= xp_116_1 <= 26.1005284040693
 0 <= xp_117_0 <= 1905.47826343911
 0 <= xp_118_0 <= 3093.38003991909
 0 <= xp_119_0 <= 61.5710283060177
 0 <= xp_120_0 <= 1418.30421783035
 0 <= xp_120_1 <= 709.152108915173
 0 <= xp_121_0 <= 74.0786508100673
 0 <= xp_122_0 <= 2230.54750398251
 0 <= xp_123_0 <= 503.850875614165
 0 <= xp_124_0 <= 135.004956306598
 0 <= xp_125_0 <= 22.2966638280954
 0 <= xp_125_1 <= 4.45933276561908
 0 <= xp_126_0 <= 4147.62003261223
 0 <= xp_126_1 <= 4147.62003261223
 0 <= xp_126_2 <= 8295.24006522445
 0 <= xp_126_3 <= 4147.62003261223
 0 <= xp_126_4 <= 4147.62003261223
 0 <= xp_127_0 <= 188.538440254343
 0 <= xp_127_1 <= 377.076880508686
 0 <= xp_128_0 <= 331.871066183483
 0 <= xp_128_1 <= 66.3742132366965
 0 <= xp_129_0 <= 32.0212328711924
 0 <= xp_129_1 <= 16.0106164355962
 0 <= xp_130_0 <= 395.795332744128
 0 <= xp_131_0 <= 250.947608212694
 0 <= xp_131_1 <= 376.421412319041
 0 <= xp_131_2 <= 125.473804106347

End
